\ENCODING=ISO-8859-1
\Problem name: ilog.cplex

Minimize
 obj1: 102035 x1 + 104685 x2 + 102461 x3 + 109894 x4 + 102135 x5 + 103282 x6
       + 90588 x7 + 94170 x8 + 101259 x9 + 90226 x10 + 106944 x11 + 104305 x12
       + 93564 x13 + 107115 x14 + 94192 x15 + 100925 x16 + 93577 x17
       + 104987 x18 + 101584 x19 + 99626 x20 + 91504 x21 + 105904 x22
       + 103450 x23 + 94485 x24 + 94336 x25 + 99329 x26 + 101991 x27
       + 107847 x28 + 92860 x29 + 93287 x30 + 98891 x31 + 91734 x32 + 91133 x33
       + 94938 x34 + 94489 x35 + 91254 x36 + 92032 x37 + 95582 x38 + 98134 x39
       + 101037 x40 + 90147 x41 + 101045 x42 + 108820 x43 + 101988 x44
       + 101609 x45 + 99966 x46 + 91317 x47 + 97530 x48 + 99350 x49 + 99753 x50
       + 102748 x51 + 107978 x52 + 109439 x53 + 103658 x54 + 103669 x55
       + 103959 x56 + 96206 x57 + 96558 x58 + 103411 x59 + 94226 x60
       + 92402 x61 + 92105 x62 + 94044 x63 + 103418 x64 + 103168 x65
       + 97781 x66 + 95150 x67 + 104023 x68 + 93720 x69 + 102113 x70
       + 92620 x71 + 91782 x72 + 99666 x73 + 107181 x74 + 107587 x75
       + 93403 x76 + 93510 x77 + 90952 x78 + 105405 x79 + 104925 x80
       + 96697 x81 + 106382 x82 + 102396 x83 + 91466 x84 + 94711 x85
       + 109448 x86 + 101557 x87 + 102069 x88 + 96497 x89 + 94030 x90
       + 107499 x91 + 106961 x92 + 98880 x93 + 98027 x94 + 95586 x95
       + 108796 x96 + 91665 x97 + 92103 x98 + 100584 x99 + 94304 x100
       + 98267 x101 + 104899 x102 + 109037 x103 + 97606 x104 + 107839 x105
       + 91530 x106 + 93398 x107 + 109231 x108 + 101990 x109 + 98781 x110
       + 92274 x111 + 107003 x112 + 98189 x113 + 93761 x114 + 102719 x115
       + 90084 x116 + 106456 x117 + 90082 x118 + 107772 x119 + 95313 x120
       + 109509 x121 + 99929 x122 + 106873 x123 + 100207 x124 + 96971 x125
       + 108036 x126 + 109099 x127 + 94909 x128 + 101481 x129 + 101545 x130
       + 92183 x131 + 94478 x132 + 95018 x133 + 101024 x134 + 103650 x135
       + 109540 x136 + 104877 x137 + 104776 x138 + 94264 x139 + 105505 x140
       + 100475 x141 + 101137 x142 + 108591 x143 + 98392 x144 + 104509 x145
       + 101555 x146 + 92602 x147 + 98769 x148 + 95008 x149 + 101064 x150
       + 102111 x151 + 108095 x152 + 96718 x153 + 107988 x154 + 102756 x155
       + 96460 x156 + 97308 x157 + 107029 x158 + 90881 x159 + 108628 x160
       + 105010 x161 + 91230 x162 + 102325 x163 + 108662 x164 + 107783 x165
       + 91402 x166 + 92757 x167 + 92772 x168 + 99103 x169 + 93919 x170
       + 100620 x171 + 100959 x172 + 92293 x173 + 103893 x174 + 101613 x175
       + 106670 x176 + 94412 x177 + 94012 x178 + 93956 x179 + 109092 x180
       + 95442 x181 + 100571 x182 + 108083 x183 + 94202 x184 + 108214 x185
       + 107481 x186 + 104417 x187 + 92675 x188 + 99863 x189 + 108913 x190
       + 108520 x191 + 105495 x192 + 106521 x193 + 101692 x194 + 94213 x195
       + 91349 x196 + 99594 x197 + 109700 x198 + 102106 x199 + 93867 x200
       + 91281 x201 + 97578 x202 + 96935 x203 + 108061 x204 + 96274 x205
       + 90968 x206 + 103796 x207 + 96360 x208 + 99584 x209 + 93022 x210
       + 94602 x211 + 99905 x212 + 97347 x213 + 103188 x214 + 103571 x215
       + 103645 x216 + 109235 x217 + 109296 x218 + 94110 x219 + 98721 x220
       + 102087 x221 + 101802 x222 + 94932 x223 + 98402 x224 + 102071 x225
       + 98085 x226 + 101231 x227 + 92381 x228 + 107304 x229 + 107471 x230
       + 101303 x231 + 102070 x232 + 102439 x233 + 100499 x234 + 106374 x235
       + 92679 x236 + 106876 x237 + 104401 x238 + 109376 x239 + 106644 x240
       + 99083 x241 + 90835 x242 + 97017 x243 + 107333 x244 + 90908 x245
       + 91641 x246 + 108756 x247 + 102034 x248 + 97842 x249 + 113302 x250
       + 18633 x251 + 19970 x252 + 20674 x253 + 21515 x254 + 20043 x255
       + 18218 x256 + 18394 x257 + 21115 x258 + 18748 x259 + 21507 x260
       + 18930 x261 + 21597 x262 + 19689 x263 + 19326 x264 + 18883 x265
       + 19359 x266 + 18477 x267 + 21308 x268 + 18734 x269 + 20953 x270
       + 18057 x271 + 21402 x272 + 21292 x273 + 21756 x274 + 20469 x275
       + 19356 x276 + 20176 x277 + 20331 x278 + 19924 x279 + 19712 x280
       + 18553 x281 + 18551 x282 + 20297 x283 + 18394 x284 + 21447 x285
       + 20116 x286 + 18380 x287 + 19168 x288 + 19348 x289 + 19009 x290
       + 21879 x291 + 20853 x292 + 18705 x293 + 20710 x294 + 20151 x295
       + 21148 x296 + 20027 x297 + 18650 x298 + 20023 x299 + 26043 x300
Subject To
 c1:   - x7 + x10 - x13 + x14 + x19 + x28 + x34 - x37 + x38 - x50  = 1
 c2:   - x57 + x60 - x63 + x64 + x69 + x78 + x84 - x87 + x88 - x100  = 0
 c3:   - x107 + x110 - x113 + x114 + x119 + x128 + x134 - x137 + x138 - x150
        = 1
 c4:   - x157 + x160 - x163 + x164 + x169 + x178 + x184 - x187 + x188 - x200
        = 0
 c5:   - x207 + x210 - x213 + x214 + x219 + x228 + x234 - x237 + x238 - x250
        = 0
 c6:   x1 - x8 - x9 - x11 - x16 - x25 + x35 + x41 - x43  = -1
 c7:   x51 - x58 - x59 - x61 - x66 - x75 + x85 + x91 - x93  = 0
 c8:   x101 - x108 - x109 - x111 - x116 - x125 + x135 + x141 - x143  = 0
 c9:   x151 - x158 - x159 - x161 - x166 - x175 + x185 + x191 - x193  = 0
 c10:  x201 - x208 - x209 - x211 - x216 - x225 + x235 + x241 - x243  = -1
 c11:  - x12 - x19 + x20 - x26 + x36 + x43 - x45  = 0
 c12:  - x62 - x69 + x70 - x76 + x86 + x93 - x95  = 0
 c13:  - x112 - x119 + x120 - x126 + x136 + x143 - x145  = 0
 c14:  - x162 - x169 + x170 - x176 + x186 + x193 - x195  = 0
 c15:  - x212 - x219 + x220 - x226 + x236 + x243 - x245  = 0
 c16:  x13 + x16 - x22 - x24 - x28 - x36 + x42 - x44 + x49  = 0
 c17:  x63 + x66 - x72 - x74 - x78 - x86 + x92 - x94 + x99  = 1
 c18:  x113 + x116 - x122 - x124 - x128 - x136 + x142 - x144 + x149  = 0
 c19:  x163 + x166 - x172 - x174 - x178 - x186 + x192 - x194 + x199  = 0
 c20:  x213 + x216 - x222 - x224 - x228 - x236 + x242 - x244 + x249  = 0
 c21:  x5 + x8 - x15 - x18 + x22 + x23 + x27 + x30 - x35 + x37 - x40 - x42
       + x47  = 0
 c22:  x55 + x58 - x65 - x68 + x72 + x73 + x77 + x80 - x85 + x87 - x90 - x92
       + x97  = 0
 c23:  x105 + x108 - x115 - x118 + x122 + x123 + x127 + x130 - x135 + x137
       - x140 - x142 + x147  = 0
 c24:  x155 + x158 - x165 - x168 + x172 + x173 + x177 + x180 - x185 + x187
       - x190 - x192 + x197  = 0
 c25:  x205 + x208 - x215 - x218 + x222 + x223 + x227 + x230 - x235 + x237
       - x240 - x242 + x247  = 0
 c26:  - x2 + x3 - x5 - x6 + x7 + x18 - x20 + x21 - x38 - x39 - x41 + x46  = 0
 c27:  - x52 + x53 - x55 - x56 + x57 + x68 - x70 + x71 - x88 - x89 - x91 + x96
        = -1
 c28:  - x102 + x103 - x105 - x106 + x107 + x118 - x120 + x121 - x138 - x139
       - x141 + x146  = 0
 c29:  - x152 + x153 - x155 - x156 + x157 + x168 - x170 + x171 - x188 - x189
       - x191 + x196  = 0
 c30:  - x202 + x203 - x205 - x206 + x207 + x218 - x220 + x221 - x238 - x239
       - x241 + x246  = 0
 c31:  x2 - x14 - x21 + x25 - x27 + x29 + x33 - x49  = 0
 c32:  x52 - x64 - x71 + x75 - x77 + x79 + x83 - x99  = 0
 c33:  x102 - x114 - x121 + x125 - x127 + x129 + x133 - x149  = 0
 c34:  x152 - x164 - x171 + x175 - x177 + x179 + x183 - x199  = 0
 c35:  x202 - x214 - x221 + x225 - x227 + x229 + x233 - x249  = 0
 c36:  x9 + x12 - x29 - x30 - x31 - x32 + x39 + x44 + x48 + x50  = 0
 c37:  x59 + x62 - x79 - x80 - x81 - x82 + x89 + x94 + x98 + x100  = 0
 c38:  x109 + x112 - x129 - x130 - x131 - x132 + x139 + x144 + x148 + x150  = 0
 c39:  x159 + x162 - x179 - x180 - x181 - x182 + x189 + x194 + x198 + x200  = 1
 c40:  x209 + x212 - x229 - x230 - x231 - x232 + x239 + x244 + x248 + x250  = 1
 c41:  - x1 - x3 - x4 + x11 + x17 + x24 + x26 + x31 - x34 + x40 - x47 - x48
        = 0
 c42:  - x51 - x53 - x54 + x61 + x67 + x74 + x76 + x81 - x84 + x90 - x97 - x98
        = 0
 c43:  - x101 - x103 - x104 + x111 + x117 + x124 + x126 + x131 - x134 + x140
       - x147 - x148  = -1
 c44:  - x151 - x153 - x154 + x161 + x167 + x174 + x176 + x181 - x184 + x190
       - x197 - x198  = 0
 c45:  - x201 - x203 - x204 + x211 + x217 + x224 + x226 + x231 - x234 + x240
       - x247 - x248  = 0
 c46:  x4 + x6 - x10 + x15 - x17 - x23 + x32 - x33 + x45 - x46  = 0
 c47:  x54 + x56 - x60 + x65 - x67 - x73 + x82 - x83 + x95 - x96  = 0
 c48:  x104 + x106 - x110 + x115 - x117 - x123 + x132 - x133 + x145 - x146  = 0
 c49:  x154 + x156 - x160 + x165 - x167 - x173 + x182 - x183 + x195 - x196
        = -1
 c50:  x204 + x206 - x210 + x215 - x217 - x223 + x232 - x233 + x245 - x246  = 0
 c51:  4 x1 + 4 x51 + 4 x101 + 4 x151 + 4 x201 - 2 x251 <= 0
 c52:  4 x2 + 4 x52 + 4 x102 + 4 x152 + 4 x202 - 2 x252 <= 0
 c53:  4 x3 + 4 x53 + 4 x103 + 4 x153 + 4 x203 - 2 x253 <= 0
 c54:  4 x4 + 4 x54 + 4 x104 + 4 x154 + 4 x204 - 2 x254 <= 0
 c55:  4 x5 + 4 x55 + 4 x105 + 4 x155 + 4 x205 - 2 x255 <= 0
 c56:  4 x6 + 4 x56 + 4 x106 + 4 x156 + 4 x206 - 2 x256 <= 0
 c57:  4 x7 + 4 x57 + 4 x107 + 4 x157 + 4 x207 - 2 x257 <= 0
 c58:  4 x8 + 4 x58 + 4 x108 + 4 x158 + 4 x208 - 2 x258 <= 0
 c59:  4 x9 + 4 x59 + 4 x109 + 4 x159 + 4 x209 - 2 x259 <= 0
 c60:  4 x10 + 4 x60 + 4 x110 + 4 x160 + 4 x210 - 2 x260 <= 0
 c61:  4 x11 + 4 x61 + 4 x111 + 4 x161 + 4 x211 - 2 x261 <= 0
 c62:  4 x12 + 4 x62 + 4 x112 + 4 x162 + 4 x212 - 2 x262 <= 0
 c63:  4 x13 + 4 x63 + 4 x113 + 4 x163 + 4 x213 - 2 x263 <= 0
 c64:  4 x14 + 4 x64 + 4 x114 + 4 x164 + 4 x214 - 2 x264 <= 0
 c65:  4 x15 + 4 x65 + 4 x115 + 4 x165 + 4 x215 - 2 x265 <= 0
 c66:  4 x16 + 4 x66 + 4 x116 + 4 x166 + 4 x216 - 2 x266 <= 0
 c67:  4 x17 + 4 x67 + 4 x117 + 4 x167 + 4 x217 - 2 x267 <= 0
 c68:  4 x18 + 4 x68 + 4 x118 + 4 x168 + 4 x218 - 2 x268 <= 0
 c69:  4 x19 + 4 x69 + 4 x119 + 4 x169 + 4 x219 - 2 x269 <= 0
 c70:  4 x20 + 4 x70 + 4 x120 + 4 x170 + 4 x220 - 2 x270 <= 0
 c71:  4 x21 + 4 x71 + 4 x121 + 4 x171 + 4 x221 - 2 x271 <= 0
 c72:  4 x22 + 4 x72 + 4 x122 + 4 x172 + 4 x222 - 2 x272 <= 0
 c73:  4 x23 + 4 x73 + 4 x123 + 4 x173 + 4 x223 - 2 x273 <= 0
 c74:  4 x24 + 4 x74 + 4 x124 + 4 x174 + 4 x224 - 2 x274 <= 0
 c75:  4 x25 + 4 x75 + 4 x125 + 4 x175 + 4 x225 - 2 x275 <= 0
 c76:  4 x26 + 4 x76 + 4 x126 + 4 x176 + 4 x226 - 2 x276 <= 0
 c77:  4 x27 + 4 x77 + 4 x127 + 4 x177 + 4 x227 - 2 x277 <= 0
 c78:  4 x28 + 4 x78 + 4 x128 + 4 x178 + 4 x228 - 2 x278 <= 0
 c79:  4 x29 + 4 x79 + 4 x129 + 4 x179 + 4 x229 - 2 x279 <= 0
 c80:  4 x30 + 4 x80 + 4 x130 + 4 x180 + 4 x230 - 2 x280 <= 0
 c81:  4 x31 + 4 x81 + 4 x131 + 4 x181 + 4 x231 - 2 x281 <= 0
 c82:  4 x32 + 4 x82 + 4 x132 + 4 x182 + 4 x232 - 2 x282 <= 0
 c83:  4 x33 + 4 x83 + 4 x133 + 4 x183 + 4 x233 - 2 x283 <= 0
 c84:  4 x34 + 4 x84 + 4 x134 + 4 x184 + 4 x234 - 2 x284 <= 0
 c85:  4 x35 + 4 x85 + 4 x135 + 4 x185 + 4 x235 - 2 x285 <= 0
 c86:  4 x36 + 4 x86 + 4 x136 + 4 x186 + 4 x236 - 2 x286 <= 0
 c87:  4 x37 + 4 x87 + 4 x137 + 4 x187 + 4 x237 - 2 x287 <= 0
 c88:  4 x38 + 4 x88 + 4 x138 + 4 x188 + 4 x238 - 2 x288 <= 0
 c89:  4 x39 + 4 x89 + 4 x139 + 4 x189 + 4 x239 - 2 x289 <= 0
 c90:  4 x40 + 4 x90 + 4 x140 + 4 x190 + 4 x240 - 2 x290 <= 0
 c91:  4 x41 + 4 x91 + 4 x141 + 4 x191 + 4 x241 - 2 x291 <= 0
 c92:  4 x42 + 4 x92 + 4 x142 + 4 x192 + 4 x242 - 2 x292 <= 0
 c93:  4 x43 + 4 x93 + 4 x143 + 4 x193 + 4 x243 - 2 x293 <= 0
 c94:  4 x44 + 4 x94 + 4 x144 + 4 x194 + 4 x244 - 2 x294 <= 0
 c95:  4 x45 + 4 x95 + 4 x145 + 4 x195 + 4 x245 - 2 x295 <= 0
 c96:  4 x46 + 4 x96 + 4 x146 + 4 x196 + 4 x246 - 2 x296 <= 0
 c97:  4 x47 + 4 x97 + 4 x147 + 4 x197 + 4 x247 - 2 x297 <= 0
 c98:  4 x48 + 4 x98 + 4 x148 + 4 x198 + 4 x248 - 2 x298 <= 0
 c99:  4 x49 + 4 x99 + 4 x149 + 4 x199 + 4 x249 - 2 x299 <= 0
 c100: 4 x50 + 4 x100 + 4 x150 + 4 x200 + 4 x250 - 2 x300 <= 0
Bounds
 0 <= x1 <= 1
 0 <= x2 <= 1
 0 <= x3 <= 1
 0 <= x4 <= 1
 0 <= x5 <= 1
 0 <= x6 <= 1
 0 <= x7 <= 1
 0 <= x8 <= 1
 0 <= x9 <= 1
 0 <= x10 <= 1
 0 <= x11 <= 1
 0 <= x12 <= 1
 0 <= x13 <= 1
 0 <= x14 <= 1
 0 <= x15 <= 1
 0 <= x16 <= 1
 0 <= x17 <= 1
 0 <= x18 <= 1
 0 <= x19 <= 1
 0 <= x20 <= 1
 0 <= x21 <= 1
 0 <= x22 <= 1
 0 <= x23 <= 1
 0 <= x24 <= 1
 0 <= x25 <= 1
 0 <= x26 <= 1
 0 <= x27 <= 1
 0 <= x28 <= 1
 0 <= x29 <= 1
 0 <= x30 <= 1
 0 <= x31 <= 1
 0 <= x32 <= 1
 0 <= x33 <= 1
 0 <= x34 <= 1
 0 <= x35 <= 1
 0 <= x36 <= 1
 0 <= x37 <= 1
 0 <= x38 <= 1
 0 <= x39 <= 1
 0 <= x40 <= 1
 0 <= x41 <= 1
 0 <= x42 <= 1
 0 <= x43 <= 1
 0 <= x44 <= 1
 0 <= x45 <= 1
 0 <= x46 <= 1
 0 <= x47 <= 1
 0 <= x48 <= 1
 0 <= x49 <= 1
 0 <= x50 <= 1
 0 <= x51 <= 1
 0 <= x52 <= 1
 0 <= x53 <= 1
 0 <= x54 <= 1
 0 <= x55 <= 1
 0 <= x56 <= 1
 0 <= x57 <= 1
 0 <= x58 <= 1
 0 <= x59 <= 1
 0 <= x60 <= 1
 0 <= x61 <= 1
 0 <= x62 <= 1
 0 <= x63 <= 1
 0 <= x64 <= 1
 0 <= x65 <= 1
 0 <= x66 <= 1
 0 <= x67 <= 1
 0 <= x68 <= 1
 0 <= x69 <= 1
 0 <= x70 <= 1
 0 <= x71 <= 1
 0 <= x72 <= 1
 0 <= x73 <= 1
 0 <= x74 <= 1
 0 <= x75 <= 1
 0 <= x76 <= 1
 0 <= x77 <= 1
 0 <= x78 <= 1
 0 <= x79 <= 1
 0 <= x80 <= 1
 0 <= x81 <= 1
 0 <= x82 <= 1
 0 <= x83 <= 1
 0 <= x84 <= 1
 0 <= x85 <= 1
 0 <= x86 <= 1
 0 <= x87 <= 1
 0 <= x88 <= 1
 0 <= x89 <= 1
 0 <= x90 <= 1
 0 <= x91 <= 1
 0 <= x92 <= 1
 0 <= x93 <= 1
 0 <= x94 <= 1
 0 <= x95 <= 1
 0 <= x96 <= 1
 0 <= x97 <= 1
 0 <= x98 <= 1
 0 <= x99 <= 1
 0 <= x100 <= 1
 0 <= x101 <= 1
 0 <= x102 <= 1
 0 <= x103 <= 1
 0 <= x104 <= 1
 0 <= x105 <= 1
 0 <= x106 <= 1
 0 <= x107 <= 1
 0 <= x108 <= 1
 0 <= x109 <= 1
 0 <= x110 <= 1
 0 <= x111 <= 1
 0 <= x112 <= 1
 0 <= x113 <= 1
 0 <= x114 <= 1
 0 <= x115 <= 1
 0 <= x116 <= 1
 0 <= x117 <= 1
 0 <= x118 <= 1
 0 <= x119 <= 1
 0 <= x120 <= 1
 0 <= x121 <= 1
 0 <= x122 <= 1
 0 <= x123 <= 1
 0 <= x124 <= 1
 0 <= x125 <= 1
 0 <= x126 <= 1
 0 <= x127 <= 1
 0 <= x128 <= 1
 0 <= x129 <= 1
 0 <= x130 <= 1
 0 <= x131 <= 1
 0 <= x132 <= 1
 0 <= x133 <= 1
 0 <= x134 <= 1
 0 <= x135 <= 1
 0 <= x136 <= 1
 0 <= x137 <= 1
 0 <= x138 <= 1
 0 <= x139 <= 1
 0 <= x140 <= 1
 0 <= x141 <= 1
 0 <= x142 <= 1
 0 <= x143 <= 1
 0 <= x144 <= 1
 0 <= x145 <= 1
 0 <= x146 <= 1
 0 <= x147 <= 1
 0 <= x148 <= 1
 0 <= x149 <= 1
 0 <= x150 <= 1
 0 <= x151 <= 1
 0 <= x152 <= 1
 0 <= x153 <= 1
 0 <= x154 <= 1
 0 <= x155 <= 1
 0 <= x156 <= 1
 0 <= x157 <= 1
 0 <= x158 <= 1
 0 <= x159 <= 1
 0 <= x160 <= 1
 0 <= x161 <= 1
 0 <= x162 <= 1
 0 <= x163 <= 1
 0 <= x164 <= 1
 0 <= x165 <= 1
 0 <= x166 <= 1
 0 <= x167 <= 1
 0 <= x168 <= 1
 0 <= x169 <= 1
 0 <= x170 <= 1
 0 <= x171 <= 1
 0 <= x172 <= 1
 0 <= x173 <= 1
 0 <= x174 <= 1
 0 <= x175 <= 1
 0 <= x176 <= 1
 0 <= x177 <= 1
 0 <= x178 <= 1
 0 <= x179 <= 1
 0 <= x180 <= 1
 0 <= x181 <= 1
 0 <= x182 <= 1
 0 <= x183 <= 1
 0 <= x184 <= 1
 0 <= x185 <= 1
 0 <= x186 <= 1
 0 <= x187 <= 1
 0 <= x188 <= 1
 0 <= x189 <= 1
 0 <= x190 <= 1
 0 <= x191 <= 1
 0 <= x192 <= 1
 0 <= x193 <= 1
 0 <= x194 <= 1
 0 <= x195 <= 1
 0 <= x196 <= 1
 0 <= x197 <= 1
 0 <= x198 <= 1
 0 <= x199 <= 1
 0 <= x200 <= 1
 0 <= x201 <= 1
 0 <= x202 <= 1
 0 <= x203 <= 1
 0 <= x204 <= 1
 0 <= x205 <= 1
 0 <= x206 <= 1
 0 <= x207 <= 1
 0 <= x208 <= 1
 0 <= x209 <= 1
 0 <= x210 <= 1
 0 <= x211 <= 1
 0 <= x212 <= 1
 0 <= x213 <= 1
 0 <= x214 <= 1
 0 <= x215 <= 1
 0 <= x216 <= 1
 0 <= x217 <= 1
 0 <= x218 <= 1
 0 <= x219 <= 1
 0 <= x220 <= 1
 0 <= x221 <= 1
 0 <= x222 <= 1
 0 <= x223 <= 1
 0 <= x224 <= 1
 0 <= x225 <= 1
 0 <= x226 <= 1
 0 <= x227 <= 1
 0 <= x228 <= 1
 0 <= x229 <= 1
 0 <= x230 <= 1
 0 <= x231 <= 1
 0 <= x232 <= 1
 0 <= x233 <= 1
 0 <= x234 <= 1
 0 <= x235 <= 1
 0 <= x236 <= 1
 0 <= x237 <= 1
 0 <= x238 <= 1
 0 <= x239 <= 1
 0 <= x240 <= 1
 0 <= x241 <= 1
 0 <= x242 <= 1
 0 <= x243 <= 1
 0 <= x244 <= 1
 0 <= x245 <= 1
 0 <= x246 <= 1
 0 <= x247 <= 1
 0 <= x248 <= 1
 0 <= x249 <= 1
 0 <= x250 <= 1
 0 <= x251 <= 1
 0 <= x252 <= 1
 0 <= x253 <= 1
 0 <= x254 <= 1
 0 <= x255 <= 1
 0 <= x256 <= 1
 0 <= x257 <= 1
 0 <= x258 <= 1
 0 <= x259 <= 1
 0 <= x260 <= 1
 0 <= x261 <= 1
 0 <= x262 <= 1
 0 <= x263 <= 1
 0 <= x264 <= 1
 0 <= x265 <= 1
 0 <= x266 <= 1
 0 <= x267 <= 1
 0 <= x268 <= 1
 0 <= x269 <= 1
 0 <= x270 <= 1
 0 <= x271 <= 1
 0 <= x272 <= 1
 0 <= x273 <= 1
 0 <= x274 <= 1
 0 <= x275 <= 1
 0 <= x276 <= 1
 0 <= x277 <= 1
 0 <= x278 <= 1
 0 <= x279 <= 1
 0 <= x280 <= 1
 0 <= x281 <= 1
 0 <= x282 <= 1
 0 <= x283 <= 1
 0 <= x284 <= 1
 0 <= x285 <= 1
 0 <= x286 <= 1
 0 <= x287 <= 1
 0 <= x288 <= 1
 0 <= x289 <= 1
 0 <= x290 <= 1
 0 <= x291 <= 1
 0 <= x292 <= 1
 0 <= x293 <= 1
 0 <= x294 <= 1
 0 <= x295 <= 1
 0 <= x296 <= 1
 0 <= x297 <= 1
 0 <= x298 <= 1
 0 <= x299 <= 1
 0 <= x300 <= 1
Binaries
 x251  x252  x253  x254  x255  x256  x257  x258  x259  x260  x261  x262  x263 
 x264  x265  x266  x267  x268  x269  x270  x271  x272  x273  x274  x275  x276 
 x277  x278  x279  x280  x281  x282  x283  x284  x285  x286  x287  x288  x289 
 x290  x291  x292  x293  x294  x295  x296  x297  x298  x299  x300 
End
